results_rootrelaxation/bin018_050_023.srr.sol
solution status: optimal solution found
objective value:                                    0
_var566_                            0.151730187912265 	(obj:0)
_var692_                            0.125482188323911 	(obj:0)
_var2239_                           0.011885734424133 	(obj:0)
_var2755_                           0.146669238470817 	(obj:0)
_var2756_                         0.00471848169756572 	(obj:0)
_var2759_                          0.0795561105559066 	(obj:0)
_var2760_                            0.15449142229291 	(obj:0)
_var2761_                           0.117585456163907 	(obj:0)
_var2764_                           0.183722596024846 	(obj:0)
_var2766_                          0.0631913851638987 	(obj:0)
_var2769_                            0.29254000468572 	(obj:0)
_var2771_                           0.170280604843136 	(obj:0)
_var2774_                           0.297149428819651 	(obj:0)
_var2775_                           0.227726288645151 	(obj:0)
_var2787_                          0.0357257416020317 	(obj:0)
_var2788_                           0.338368665111492 	(obj:0)
_var2791_                           0.088154167361226 	(obj:0)
_var2792_                           0.114582406036204 	(obj:0)
_var2795_                           0.205396987541298 	(obj:0)
_var2796_                           0.243651597537474 	(obj:0)
_var2797_                          0.0775358889953478 	(obj:0)
_var2798_                          0.0446557051400929 	(obj:0)
_var2799_                           0.355946291457534 	(obj:0)
_var2806_                           0.202812268843469 	(obj:0)
_var2809_                          0.0209472424469021 	(obj:0)
_var2810_                           0.140347137324664 	(obj:0)
_var2812_                          0.0023318721945179 	(obj:0)
_var2813_                          0.0225434341585845 	(obj:0)
_var2814_                           0.295855196189928 	(obj:0)
_var2815_                           0.321225371960724 	(obj:0)
_var2816_                           0.309939686970028 	(obj:0)
_var2817_                          0.0204545022811171 	(obj:0)
_var2818_                          0.0425002463930887 	(obj:0)
_var2819_                           0.194334903866755 	(obj:0)
_var2820_                         0.00640365316501884 	(obj:0)
_var2821_                           0.114964083155687 	(obj:0)
_var2823_                           0.184471033694314 	(obj:0)
_var2824_                           0.149857102279487 	(obj:0)
_var2826_                          0.0054064472516004 	(obj:0)
_var2827_                          0.0679230252935582 	(obj:0)
_var2832_                           0.144802505863878 	(obj:0)
_var2835_                          0.0504555354092953 	(obj:0)
_var2836_                           0.187411980672825 	(obj:0)
_var2839_                           0.183261268000706 	(obj:0)
_var2842_                           0.258500504216933 	(obj:0)
_var2850_                           0.126830302322302 	(obj:0)
_var2853_                           0.158584001068609 	(obj:0)
_var2855_                           0.112795880710556 	(obj:0)
_var2858_                           0.258385121286412 	(obj:0)
_var2860_                          0.0971315832537155 	(obj:0)
_var2862_                           0.319138792728383 	(obj:0)
_var2870_                          0.0145383744791423 	(obj:0)
_var2872_                           0.359635835310893 	(obj:0)
_var2874_                          0.0624503314563875 	(obj:0)
_var2877_                           0.111920492667865 	(obj:0)
_var2885_                          0.0356708853313644 	(obj:0)
_var2886_                           0.114090707457017 	(obj:0)
_var2888_                           0.452634124725014 	(obj:0)
_var2890_                          0.0224431640825292 	(obj:0)
_var2891_                           0.102528368087152 	(obj:0)
_var2893_                           0.077658804476713 	(obj:0)
_var2894_                           0.209878093282943 	(obj:0)
_var2895_                          0.0639829367623136 	(obj:0)
_var2896_                          0.0167282538447457 	(obj:0)
_var2897_                              0.344378483207 	(obj:0)
_var2898_                           0.177987886678037 	(obj:0)
_var2904_                            0.16048770043787 	(obj:0)
_var2905_                          0.0242981698289367 	(obj:0)
_var2906_                            0.19838545738057 	(obj:0)
_var2910_                          0.0192708667697617 	(obj:0)
_var2911_                          0.0517190278499728 	(obj:0)
_var2916_                            0.30468845713086 	(obj:0)
_var2919_                           0.187826623668164 	(obj:0)
_var2922_                           0.116900943211607 	(obj:0)
_var2924_                           0.185460802317132 	(obj:0)
_var2925_                          0.0711940907842729 	(obj:0)
_var2926_                           0.157008639752044 	(obj:0)
_var2927_                           0.181374915456101 	(obj:0)
_var2928_                          0.0689423900882104 	(obj:0)
_var2929_                           0.234593094111576 	(obj:0)
_var2930_                          0.0851721574709036 	(obj:0)
_var2931_                          0.0541505546270958 	(obj:0)
_var2933_                          0.0343420436898618 	(obj:0)
_var2936_                          0.0740807872589369 	(obj:0)
_var2937_                            0.22017253903354 	(obj:0)
_var2940_                          0.0408489626652316 	(obj:0)
_var2943_                           0.067070618884056 	(obj:0)
_var2945_                          0.0185006034436497 	(obj:0)
_var2946_                          0.0914627313623279 	(obj:0)
_var2947_                           0.093371458731507 	(obj:0)
_var2948_                          0.0306716008129404 	(obj:0)
_var2949_                           0.195008165207771 	(obj:0)
_var2951_                           0.111210753390094 	(obj:0)
_var2953_                          0.0601160288058457 	(obj:0)
_var2954_                          0.0757449174752948 	(obj:0)
_var2955_                          0.0610523666980919 	(obj:0)
_var2957_                          0.0857242179789089 	(obj:0)
_var2962_                          0.0287967483110425 	(obj:0)
_var2964_                           0.215885565382064 	(obj:0)
_var2966_                           0.126256773717099 	(obj:0)
_var2967_                         0.00148232237049322 	(obj:0)
_var2969_                          0.0103250033596977 	(obj:0)
_var2970_                           0.209610327705378 	(obj:0)
_var2971_                           0.316125703416485 	(obj:0)
_var2972_                          0.0539429133975215 	(obj:0)
_var2975_                          0.0100324573743178 	(obj:0)
_var2976_                           0.109691349572856 	(obj:0)
_var2980_                          0.0927921684414748 	(obj:0)
_var2981_                          0.0880825628997579 	(obj:0)
_var2982_                          0.0689861092067675 	(obj:0)
_var2983_                          0.0747422943782057 	(obj:0)
_var2984_                           0.206203562048833 	(obj:0)
_var2985_                            0.14603537007789 	(obj:0)
_var2987_                          0.0330787224888713 	(obj:0)
_var2989_                          0.0803579294959397 	(obj:0)
_var2990_                          0.0188951720763498 	(obj:0)
_var2991_                         0.00768031821639605 	(obj:0)
_var2992_                          0.0254205430669888 	(obj:0)
_var2993_                           0.045591997511278 	(obj:0)
_var2994_                           0.294216351679085 	(obj:0)
_var2998_                          0.0271297866497284 	(obj:0)
_var2999_                          0.0731789533786115 	(obj:0)
_var3000_                          0.0567301183138929 	(obj:0)
_var3001_                          0.0327182077070773 	(obj:0)
_var3003_                          0.0378648468956998 	(obj:0)
_var3004_                          0.0339436667526073 	(obj:0)
_var3005_                           0.175435041193836 	(obj:0)
_var3006_                           0.035903522142358 	(obj:0)
_var3007_                          0.0883279323073543 	(obj:0)
_var3011_                          0.0687436844213506 	(obj:0)
_var3012_                          0.0156803274792608 	(obj:0)
_var3013_                         0.00720922664716773 	(obj:0)
_var3016_                           0.103319982867862 	(obj:0)
_var3017_                          0.0227832788134089 	(obj:0)
_var3019_                          0.0483476975424762 	(obj:0)
_var3020_                           0.145405853175991 	(obj:0)
_var3021_                            0.12420006766253 	(obj:0)
_var3026_                           0.059858774698575 	(obj:0)
_var3027_                          0.0745913215794547 	(obj:0)
_var3030_                          0.0213112846595894 	(obj:0)
_var3031_                          0.0446681641277982 	(obj:0)
_var3034_                          0.0802964511955272 	(obj:0)
_var3035_                          0.0471743218675983 	(obj:0)
_var3039_                         0.00547530962144233 	(obj:0)
_var3040_                          0.0533863077408858 	(obj:0)
_var3042_                          0.0442395029797261 	(obj:0)
_var3043_                         0.00487372050512381 	(obj:0)
_var3046_                          0.0622109854203576 	(obj:0)
_var3047_                          0.0159281654159843 	(obj:0)
_var3048_                           0.032944444108115 	(obj:0)
_var3054_                          0.0136880158187473 	(obj:0)
_var3055_                          0.0204590801332468 	(obj:0)
