results_rootrelaxation/bin018_050_023.srr.log
SCIP version 8.0.3.5 [precision: 8 byte] [memory: block] [mode: optimized] [LP solver: Soplex 6.0.1.3] [GitHash: 438792519e]
Copyright (c) 2002-2023 Zuse Institute Berlin (ZIB)

External libraries: 
  Readline 8.1         GNU library for command line editing (gnu.org/s/readline)
  Soplex 6.0.1.3       Linear Programming Solver developed at Zuse Institute Berlin (soplex.zib.de) [GitHash: 713be0fe]
  CppAD 20180000.0     Algorithmic Differentiation of C++ algorithms developed by B. Bell (github.com/coin-or/CppAD)
  ZLIB 1.2.11          General purpose compression library by J. Gailly and M. Adler (zlib.net)
  bliss 0.77           Computing Graph Automorphism Groups by T. Junttila and P. Kaski (www.tcs.hut.fi/Software/bliss/)

user parameter file <scip.set> not found - using default parameters

srr/relaxation = TRUE

read problem <instances/bin018_050_023.srr>
============

Original problem: 
original problem has 0 variables (0 bin, 0 int, 0 impl, 0 cont) and 170 constraints

presolving:
presolving (1 rounds: 1 fast, 1 medium, 1 exhaustive):
 0 deleted vars, 0 deleted constraints, 0 added constraints, 0 tightened bounds, 0 added holes, 0 changed sides, 0 changed coefficients
 0 implications, 0 cliques
presolved problem has 0 variables (0 bin, 0 int, 0 impl, 0 cont) and 170 constraints
    170 constraints of type <linear>
Presolving Time: 0.00

 time | node  | left  |LP iter|LP it/n|mem/heur|mdpt |vars |cons |rows |cuts |sepa|confs|strbr|  dualbound   | primalbound  |  gap   | compl. 
  0.0s|     1 |     0 |     1 |     - |   922k |   0 |   1 | 170 | 170 |   0 |  0 |   0 |   0 |      --      |      --      |    Inf | unknown
  0.2s|     1 |     0 |  1180 |     - |  7460k |   0 |1615 | 170 | 170 |   0 |  0 |   0 |   0 |      --      |      --      |    Inf | unknown
r 1.0s|     1 |     0 |  8641 |     - |simplero|   0 |2754 | 170 | 170 |   0 |  0 |   0 |   0 |      --      | 3.419666e+01 |    Inf | unknown
r 1.0s|     1 |     0 |  8748 |     - |simplero|   0 |2771 | 170 | 170 |   0 |  0 |   0 |   0 |      --      | 3.246752e+01 |    Inf | unknown
r 1.0s|     1 |     0 |  8970 |     - |simplero|   0 |2788 | 170 | 170 |   0 |  0 |   0 |   0 |      --      | 2.833817e+01 |    Inf | unknown
r 1.1s|     1 |     0 |  9126 |     - |simplero|   0 |2805 | 170 | 170 |   0 |  0 |   0 |   0 |      --      | 2.570718e+01 |    Inf | unknown
r 1.1s|     1 |     0 |  9194 |     - |simplero|   0 |2822 | 170 | 170 |   0 |  0 |   0 |   0 |      --      | 2.429911e+01 |    Inf | unknown
r 1.1s|     1 |     0 |  9249 |     - |simplero|   0 |2822 | 170 | 170 |   0 |  0 |   0 |   0 |      --      | 2.382397e+01 |    Inf | unknown
r 1.1s|     1 |     0 |  9279 |     - |simplero|   0 |2822 | 170 | 170 |   0 |  0 |   0 |   0 |      --      | 2.372680e+01 |    Inf | unknown
r 1.1s|     1 |     0 |  9446 |     - |simplero|   0 |2839 | 170 | 170 |   0 |  0 |   0 |   0 |      --      | 2.065474e+01 |    Inf | unknown
r 1.1s|     1 |     0 |  9518 |     - |simplero|   0 |2839 | 170 | 170 |   0 |  0 |   0 |   0 |      --      | 2.035065e+01 |    Inf | unknown
r 1.1s|     1 |     0 |  9673 |     - |simplero|   0 |2856 | 170 | 170 |   0 |  0 |   0 |   0 |      --      | 1.779940e+01 |    Inf | unknown
r 1.1s|     1 |     0 |  9705 |     - |simplero|   0 |2856 | 170 | 170 |   0 |  0 |   0 |   0 |      --      | 1.763370e+01 |    Inf | unknown
r 1.1s|     1 |     0 |  9724 |     - |simplero|   0 |2856 | 170 | 170 |   0 |  0 |   0 |   0 |      --      | 1.761269e+01 |    Inf | unknown
r 1.1s|     1 |     0 |  9734 |     - |simplero|   0 |2856 | 170 | 170 |   0 |  0 |   0 |   0 |      --      | 1.760882e+01 |    Inf | unknown
 time | node  | left  |LP iter|LP it/n|mem/heur|mdpt |vars |cons |rows |cuts |sepa|confs|strbr|  dualbound   | primalbound  |  gap   | compl. 
r 1.2s|     1 |     0 |  9736 |     - |simplero|   0 |2856 | 170 | 170 |   0 |  0 |   0 |   0 |      --      | 1.760841e+01 |    Inf | unknown
r 1.2s|     1 |     0 |  9848 |     - |simplero|   0 |2873 | 170 | 170 |   0 |  0 |   0 |   0 |      --      | 1.565437e+01 |    Inf | unknown
r 1.2s|     1 |     0 |  9955 |     - |simplero|   0 |2873 | 170 | 170 |   0 |  0 |   0 |   0 |      --      | 1.464306e+01 |    Inf | unknown
r 1.2s|     1 |     0 |  9970 |     - |simplero|   0 |2873 | 170 | 170 |   0 |  0 |   0 |   0 |      --      | 1.462984e+01 |    Inf | unknown
r 1.2s|     1 |     0 |  9972 |     - |simplero|   0 |2873 | 170 | 170 |   0 |  0 |   0 |   0 |      --      | 1.462916e+01 |    Inf | unknown
r 1.2s|     1 |     0 | 10133 |     - |simplero|   0 |2890 | 170 | 170 |   0 |  0 |   0 |   0 |      --      | 1.204769e+01 |    Inf | unknown
r 1.2s|     1 |     0 | 10220 |     - |simplero|   0 |2890 | 170 | 170 |   0 |  0 |   0 |   0 |      --      | 1.147582e+01 |    Inf | unknown
r 1.2s|     1 |     0 | 10266 |     - |simplero|   0 |2890 | 170 | 170 |   0 |  0 |   0 |   0 |      --      | 1.140118e+01 |    Inf | unknown
r 1.2s|     1 |     0 | 10273 |     - |simplero|   0 |2890 | 170 | 170 |   0 |  0 |   0 |   0 |      --      | 1.140002e+01 |    Inf | unknown
r 1.2s|     1 |     0 | 10384 |     - |simplero|   0 |2907 | 170 | 170 |   0 |  0 |   0 |   0 |      --      | 1.022624e+01 |    Inf | unknown
r 1.2s|     1 |     0 | 10471 |     - |simplero|   0 |2907 | 170 | 170 |   0 |  0 |   0 |   0 |      --      | 9.485378e+00 |    Inf | unknown
r 1.3s|     1 |     0 | 10509 |     - |simplero|   0 |2907 | 170 | 170 |   0 |  0 |   0 |   0 |      --      | 9.410491e+00 |    Inf | unknown
r 1.3s|     1 |     0 | 10518 |     - |simplero|   0 |2907 | 170 | 170 |   0 |  0 |   0 |   0 |      --      | 9.406479e+00 |    Inf | unknown
r 1.3s|     1 |     0 | 10680 |     - |simplero|   0 |2924 | 170 | 170 |   0 |  0 |   0 |   0 |      --      | 7.746754e+00 |    Inf | unknown
r 1.3s|     1 |     0 | 10722 |     - |simplero|   0 |2924 | 170 | 170 |   0 |  0 |   0 |   0 |      --      | 7.689105e+00 |    Inf | unknown
 time | node  | left  |LP iter|LP it/n|mem/heur|mdpt |vars |cons |rows |cuts |sepa|confs|strbr|  dualbound   | primalbound  |  gap   | compl. 
r 1.3s|     1 |     0 | 10724 |     - |simplero|   0 |2924 | 170 | 170 |   0 |  0 |   0 |   0 |      --      | 7.689057e+00 |    Inf | unknown
r 1.3s|     1 |     0 | 10901 |     - |simplero|   0 |2941 | 170 | 170 |   0 |  0 |   0 |   0 |      --      | 6.259017e+00 |    Inf | unknown
  1.3s|     1 |     0 | 10974 |     - |    14M |   0 |2941 | 170 | 170 |   0 |  0 |   0 |   0 |      --      | 6.259017e+00 |    Inf | unknown
r 1.3s|     1 |     0 | 10974 |     - |simplero|   0 |2941 | 170 | 170 |   0 |  0 |   0 |   0 |      --      | 5.666570e+00 |    Inf | unknown
r 1.3s|     1 |     0 | 10994 |     - |simplero|   0 |2941 | 170 | 170 |   0 |  0 |   0 |   0 |      --      | 5.649550e+00 |    Inf | unknown
r 1.3s|     1 |     0 | 10996 |     - |simplero|   0 |2941 | 170 | 170 |   0 |  0 |   0 |   0 |      --      | 5.649475e+00 |    Inf | unknown
r 1.3s|     1 |     0 | 11113 |     - |simplero|   0 |2958 | 170 | 170 |   0 |  0 |   0 |   0 |      --      | 4.690987e+00 |    Inf | unknown
r 1.3s|     1 |     0 | 11150 |     - |simplero|   0 |2958 | 170 | 170 |   0 |  0 |   0 |   0 |      --      | 4.575725e+00 |    Inf | unknown
r 1.3s|     1 |     0 | 11163 |     - |simplero|   0 |2958 | 170 | 170 |   0 |  0 |   0 |   0 |      --      | 4.570783e+00 |    Inf | unknown
r 1.4s|     1 |     0 | 11315 |     - |simplero|   0 |2975 | 170 | 170 |   0 |  0 |   0 |   0 |      --      | 3.667363e+00 |    Inf | unknown
r 1.4s|     1 |     0 | 11370 |     - |simplero|   0 |2975 | 170 | 170 |   0 |  0 |   0 |   0 |      --      | 3.370923e+00 |    Inf | unknown
r 1.4s|     1 |     0 | 11484 |     - |simplero|   0 |2992 | 170 | 170 |   0 |  0 |   0 |   0 |      --      | 2.220494e+00 |    Inf | unknown
r 1.4s|     1 |     0 | 11510 |     - |simplero|   0 |2992 | 170 | 170 |   0 |  0 |   0 |   0 |      --      | 2.156411e+00 |    Inf | unknown
r 1.4s|     1 |     0 | 11623 |     - |simplero|   0 |3009 | 170 | 170 |   0 |  0 |   0 |   0 |      --      | 1.266935e+00 |    Inf | unknown
r 1.4s|     1 |     0 | 11638 |     - |simplero|   0 |3009 | 170 | 170 |   0 |  0 |   0 |   0 |      --      | 1.246900e+00 |    Inf | unknown
 time | node  | left  |LP iter|LP it/n|mem/heur|mdpt |vars |cons |rows |cuts |sepa|confs|strbr|  dualbound   | primalbound  |  gap   | compl. 
r 1.4s|     1 |     0 | 11641 |     - |simplero|   0 |3009 | 170 | 170 |   0 |  0 |   0 |   0 |      --      | 1.246884e+00 |    Inf | unknown
r 1.4s|     1 |     0 | 11731 |     - |simplero|   0 |3026 | 170 | 170 |   0 |  0 |   0 |   0 |      --      | 7.861204e-01 |    Inf | unknown
r 1.4s|     1 |     0 | 11750 |     - |simplero|   0 |3026 | 170 | 170 |   0 |  0 |   0 |   0 |      --      | 7.570383e-01 |    Inf | unknown
r 1.4s|     1 |     0 | 11758 |     - |simplero|   0 |3026 | 170 | 170 |   0 |  0 |   0 |   0 |      --      | 7.554064e-01 |    Inf | unknown
r 1.4s|     1 |     0 | 11762 |     - |simplero|   0 |3026 | 170 | 170 |   0 |  0 |   0 |   0 |      --      | 7.550250e-01 |    Inf | unknown
r 1.4s|     1 |     0 | 11766 |     - |simplero|   0 |3026 | 170 | 170 |   0 |  0 |   0 |   0 |      --      | 7.546164e-01 |    Inf | unknown
r 1.5s|     1 |     0 | 11768 |     - |simplero|   0 |3026 | 170 | 170 |   0 |  0 |   0 |   0 |      --      | 7.544856e-01 |    Inf | unknown
r 1.5s|     1 |     0 | 11830 |     - |simplero|   0 |3043 | 170 | 170 |   0 |  0 |   0 |   0 |      --      | 3.422537e-01 |    Inf | unknown
r 1.5s|     1 |     0 | 11899 |     - |simplero|   0 |3043 | 170 | 170 |   0 |  0 |   0 |   0 |      --      | 1.179717e-01 |    Inf | unknown
r 1.5s|     1 |     0 | 11907 |     - |simplero|   0 |3043 | 170 | 170 |   0 |  0 |   0 |   0 |      --      | 1.155688e-01 |    Inf | unknown
r 1.5s|     1 |     0 | 11945 |     - |simplero|   0 |3060 | 170 | 170 |   0 |  0 |   0 |   0 |      --      | 1.553490e-02 |    Inf | unknown
r 1.5s|     1 |     0 | 11960 |     - |simplero|   0 |3060 | 170 | 170 |   0 |  0 |   0 |   0 |      --      | 0.000000e+00 |    Inf | unknown
  1.5s|     1 |     0 | 11960 |     - |    15M |   0 |3060 | 170 | 170 |   0 |  0 |   0 |   0 | 0.000000e+00 | 0.000000e+00 |   0.00%| unknown
  1.5s|     1 |     0 | 11960 |     - |    15M |   0 |3060 | 170 | 170 |   0 |  0 |   0 |   0 | 0.000000e+00 | 0.000000e+00 |   0.00%| unknown

SCIP Status        : problem is solved [optimal solution found]
Solving Time (sec) : 1.50
Solving Nodes      : 1
Primal Bound       : +0.00000000000000e+00 (54 solutions)
Dual Bound         : +0.00000000000000e+00
Gap                : 0.00 %

written transformed problem to file <results_rootrelaxation/bin018_050_023.srr.lp>
written transformed problem to file <results_rootrelaxation/bin018_050_023.srr.cip>

written solution information to file <results_rootrelaxation/bin018_050_023.srr.sol>



